ncustomers = 5;
ndepots = 3;
vehicle_capacity = 20;
capacities = [25,25,25];
demands = [15,7,3,8,7];
opening_cost = [15,3,5];
route_cost = 6;
% the distance matrix is indexed as follows:
% * the first ncustomers elements are the customers
% * the elements between ncustomers + 1 and ncustomers + ndepots are depots
distances = array2d(1..8, 1..8, [
0,9,2,8,10,8,10,20,
9,0,2,5,14,9,10,15,
2,2,0,2,8,2,9,13,
8,1,2,0,9,8,8,8,
10,11,8,9,0,15,9,4,
4,9,2,8,15,0,0,0,
10,10,5,8,9,0,0,0,
20,15,11,8,2,0,0,0]);
